
(set-logic ALL) 

(declare-datatype MyList ((Nil) (Cons (head Real) (tail MyList)) )) 
(declare-fun l0 () MyList) 
(declare-fun l1 () MyList) 
(declare-fun l2 () MyList) 
(declare-fun l3 () MyList) 
(declare-fun i0 () Real) 
(declare-fun i1 () Real) 
(assert (is-Cons Nil) )
(assert (and (= l0 Nil) (= l1 Nil) (is-Cons Nil)) )
(assert (is-Cons Nil) )
(assert (is-Nil Nil) )
(assert (and (= l1 Nil) (= l1 l3) (= l0 l3)) )
(assert (and (= l2 Nil) (is-Cons Nil) (is-Cons Nil) (is-Cons Nil)) )
(assert (or (is-Cons l2) (= l1 l2)) )
(assert (and (= l2 l2) (= l2 Nil)) )
(check-sat)
